(set-info :smt-lib-version 2.6)
(set-logic QF_LRA)
(set-info :source |
Fully parameterized specification and verification of a synchronizer   
circuit modeling metastability at various levels of refinement.     
A paper describing this specification, to be published in Designing     
Correct Circuits (DCC), 2006, is available from the authors.            

Geoffrey Brown, Indiana University <geobrown@cs.indiana.edu>
Lee Pike, Galois Connections, Inc. <leepike@galois.com>

Translated into CVC format by Leonardo de Moura.

This benchmark was automatically translated into SMT-LIB format from
CVC format using CVC Lite

|)
(set-info :category "industrial")
(set-info :status sat)
(declare-fun x_0 () Bool)
(declare-fun x_1 () Bool)
(declare-fun x_2 () Real)
(declare-fun x_3 () Real)
(declare-fun x_4 () Bool)
(declare-fun x_5 () Bool)
(declare-fun x_6 () Real)
(declare-fun x_7 () Real)
(declare-fun x_8 () Bool)
(declare-fun x_9 () Bool)
(declare-fun x_10 () Real)
(declare-fun x_11 () Real)
(declare-fun x_12 () Bool)
(declare-fun x_13 () Bool)
(declare-fun x_14 () Real)
(declare-fun x_15 () Real)
(declare-fun x_16 () Bool)
(declare-fun x_17 () Bool)
(declare-fun x_18 () Real)
(declare-fun x_19 () Real)
(declare-fun x_20 () Bool)
(declare-fun x_21 () Bool)
(declare-fun x_22 () Real)
(declare-fun x_23 () Real)
(declare-fun x_24 () Bool)
(declare-fun x_25 () Bool)
(declare-fun x_26 () Real)
(declare-fun x_27 () Real)
(declare-fun x_28 () Bool)
(declare-fun x_29 () Bool)
(declare-fun x_30 () Real)
(declare-fun x_31 () Real)
(declare-fun x_32 () Bool)
(declare-fun x_33 () Bool)
(declare-fun x_34 () Real)
(declare-fun x_35 () Real)
(declare-fun x_36 () Bool)
(declare-fun x_37 () Bool)
(declare-fun x_38 () Real)
(declare-fun x_39 () Real)
(declare-fun x_40 () Bool)
(declare-fun x_41 () Bool)
(declare-fun x_42 () Real)
(declare-fun x_43 () Real)
(declare-fun x_44 () Bool)
(declare-fun x_45 () Bool)
(declare-fun x_46 () Real)
(declare-fun x_47 () Real)
(declare-fun x_48 () Real)
(declare-fun x_49 () Real)
(declare-fun x_50 () Real)
(declare-fun x_51 () Real)
(declare-fun x_52 () Real)
(declare-fun x_53 () Real)
(declare-fun x_54 () Real)
(declare-fun x_55 () Real)
(declare-fun x_56 () Real)
(declare-fun x_57 () Real)
(declare-fun x_58 () Real)
(declare-fun x_59 () Real)
(declare-fun x_60 () Real)
(declare-fun x_61 () Real)
(declare-fun x_62 () Real)
(declare-fun x_63 () Real)
(declare-fun x_64 () Real)
(declare-fun x_65 () Real)
(declare-fun x_66 () Real)
(declare-fun x_67 () Real)
(declare-fun x_68 () Real)
(declare-fun x_69 () Real)
(declare-fun x_70 () Real)
(declare-fun x_71 () Real)
(declare-fun x_72 () Real)
(declare-fun x_73 () Real)
(declare-fun x_74 () Real)
(declare-fun x_75 () Real)
(declare-fun x_76 () Real)
(declare-fun x_77 () Real)
(declare-fun x_78 () Real)
(declare-fun x_79 () Real)
(declare-fun x_80 () Real)
(declare-fun x_81 () Real)
(declare-fun x_82 () Real)
(declare-fun x_83 () Real)
(declare-fun x_84 () Real)
(declare-fun x_85 () Real)
(declare-fun x_86 () Real)
(declare-fun x_87 () Real)
(declare-fun x_88 () Real)
(declare-fun x_89 () Real)
(declare-fun x_90 () Real)
(declare-fun x_91 () Real)
(declare-fun x_92 () Real)
(declare-fun x_93 () Real)
(declare-fun x_94 () Real)
(declare-fun x_95 () Real)
(declare-fun x_96 () Real)
(declare-fun x_97 () Real)
(declare-fun x_98 () Real)
(declare-fun x_99 () Real)
(declare-fun x_100 () Real)
(declare-fun x_101 () Real)
(declare-fun x_102 () Real)
(declare-fun x_103 () Real)
(declare-fun x_104 () Real)
(declare-fun x_105 () Real)
(declare-fun x_106 () Real)
(declare-fun x_107 () Real)
(declare-fun x_108 () Real)
(declare-fun x_109 () Real)
(declare-fun x_110 () Real)
(declare-fun x_111 () Real)
(declare-fun x_112 () Real)
(declare-fun x_113 () Real)
(declare-fun x_114 () Real)
(declare-fun x_115 () Real)
(declare-fun x_116 () Real)
(declare-fun x_117 () Bool)
(declare-fun x_118 () Bool)
(declare-fun x_119 () Real)
(declare-fun x_120 () Bool)
(declare-fun x_121 () Bool)
(declare-fun x_122 () Bool)
(declare-fun x_123 () Bool)
(declare-fun x_124 () Bool)
(declare-fun x_125 () Real)
(declare-fun x_126 () Bool)
(declare-fun x_127 () Real)
(declare-fun x_128 () Real)
(declare-fun x_129 () Real)
(declare-fun x_130 () Bool)
(declare-fun x_131 () Real)
(declare-fun x_132 () Bool)
(declare-fun x_133 () Bool)
(declare-fun x_134 () Real)
(declare-fun x_135 () Bool)
(declare-fun x_136 () Real)
(declare-fun x_137 () Real)
(declare-fun x_138 () Real)
(declare-fun x_139 () Bool)
(declare-fun x_140 () Real)
(declare-fun x_141 () Bool)
(declare-fun x_142 () Bool)
(declare-fun x_143 () Real)
(declare-fun x_144 () Bool)
(declare-fun x_145 () Real)
(declare-fun x_146 () Real)
(declare-fun x_147 () Real)
(declare-fun x_148 () Bool)
(declare-fun x_149 () Real)
(declare-fun x_150 () Bool)
(declare-fun x_151 () Bool)
(declare-fun x_152 () Real)
(declare-fun x_153 () Bool)
(declare-fun x_154 () Real)
(declare-fun x_155 () Real)
(declare-fun x_156 () Real)
(declare-fun x_157 () Bool)
(declare-fun x_158 () Real)
(declare-fun x_159 () Bool)
(declare-fun x_160 () Bool)
(declare-fun x_161 () Real)
(declare-fun x_162 () Bool)
(declare-fun x_163 () Real)
(declare-fun x_164 () Real)
(declare-fun x_165 () Real)
(declare-fun x_166 () Bool)
(declare-fun x_167 () Real)
(declare-fun x_168 () Bool)
(declare-fun x_169 () Bool)
(declare-fun x_170 () Real)
(declare-fun x_171 () Bool)
(declare-fun x_172 () Real)
(declare-fun x_173 () Real)
(declare-fun x_174 () Real)
(declare-fun x_175 () Bool)
(declare-fun x_176 () Real)
(declare-fun x_177 () Bool)
(declare-fun x_178 () Bool)
(declare-fun x_179 () Real)
(declare-fun x_180 () Bool)
(declare-fun x_181 () Real)
(declare-fun x_182 () Real)
(declare-fun x_183 () Real)
(declare-fun x_184 () Bool)
(declare-fun x_185 () Real)
(declare-fun x_186 () Bool)
(declare-fun x_187 () Bool)
(declare-fun x_188 () Real)
(declare-fun x_189 () Bool)
(declare-fun x_190 () Real)
(declare-fun x_191 () Real)
(declare-fun x_192 () Real)
(declare-fun x_193 () Bool)
(declare-fun x_194 () Real)
(declare-fun x_195 () Bool)
(declare-fun x_196 () Bool)
(declare-fun x_197 () Real)
(declare-fun x_198 () Bool)
(declare-fun x_199 () Real)
(declare-fun x_200 () Real)
(declare-fun x_201 () Real)
(declare-fun x_202 () Bool)
(declare-fun x_203 () Real)
(declare-fun x_204 () Bool)
(declare-fun x_205 () Bool)
(declare-fun x_206 () Real)
(declare-fun x_207 () Bool)
(declare-fun x_208 () Real)
(declare-fun x_209 () Real)
(declare-fun x_210 () Real)
(declare-fun x_211 () Bool)
(declare-fun x_212 () Real)
(declare-fun x_213 () Bool)
(declare-fun x_214 () Bool)
(declare-fun x_215 () Real)
(declare-fun x_216 () Bool)
(declare-fun x_217 () Real)
(declare-fun x_218 () Real)
(declare-fun x_219 () Real)
(declare-fun x_220 () Bool)
(declare-fun x_221 () Real)
(declare-fun x_222 () Real)
(declare-fun x_223 () Bool)
(declare-fun x_224 () Bool)
(declare-fun x_225 () Bool)
(declare-fun x_226 () Bool)
(declare-fun x_227 () Real)
(declare-fun x_228 () Bool)
(declare-fun x_229 () Real)
(declare-fun x_230 () Real)
(declare-fun x_231 () Real)
(declare-fun x_232 () Real)
(assert (let ((?v_24 (ite (<= x_48 x_49) x_48 x_49)) (?v_22 (ite (<= x_57 x_58) x_57 x_58)) (?v_20 (ite (<= x_62 x_63) x_62 x_63)) (?v_18 (ite (<= x_67 x_68) x_67 x_68)) (?v_16 (ite (<= x_72 x_73) x_72 x_73)) (?v_14 (ite (<= x_77 x_78) x_77 x_78)) (?v_12 (ite (<= x_82 x_83) x_82 x_83)) (?v_10 (ite (<= x_87 x_88) x_87 x_88)) (?v_8 (ite (<= x_92 x_93) x_92 x_93)) (?v_6 (ite (<= x_97 x_98) x_97 x_98)) (?v_4 (ite (<= x_102 x_103) x_102 x_103)) (?v_2 (ite (<= x_107 x_108) x_107 x_108)) (?v_0 (ite (<= x_112 x_113) x_112 x_113)) (?v_185 (= x_59 x_53)) (?v_187 (= x_49 x_58)) (?v_189 (= x_61 x_55)) (?v_183 (= x_48 x_57))) (let ((?v_190 (not ?v_183)) (?v_193 (= x_60 x_54)) (?v_180 (= x_117 x_118)) (?v_181 (= x_7 x_3)) (?v_184 (ite (<= x_49 x_48) x_49 x_48)) (?v_171 (= x_64 x_59)) (?v_173 (= x_58 x_63)) (?v_175 (= x_66 x_61)) (?v_169 (= x_57 x_62))) (let ((?v_176 (not ?v_169)) (?v_179 (= x_65 x_60)) (?v_166 (= x_130 x_117)) (?v_167 (= x_11 x_7)) (?v_170 (ite (<= x_58 x_57) x_58 x_57)) (?v_157 (= x_69 x_64)) (?v_159 (= x_63 x_68)) (?v_161 (= x_71 x_66)) (?v_155 (= x_62 x_67))) (let ((?v_162 (not ?v_155)) (?v_165 (= x_70 x_65)) (?v_152 (= x_139 x_130)) (?v_153 (= x_15 x_11)) (?v_156 (ite (<= x_63 x_62) x_63 x_62)) (?v_143 (= x_74 x_69)) (?v_145 (= x_68 x_73)) (?v_147 (= x_76 x_71)) (?v_141 (= x_67 x_72))) (let ((?v_148 (not ?v_141)) (?v_151 (= x_75 x_70)) (?v_138 (= x_148 x_139)) (?v_139 (= x_19 x_15)) (?v_142 (ite (<= x_68 x_67) x_68 x_67)) (?v_129 (= x_79 x_74)) (?v_131 (= x_73 x_78)) (?v_133 (= x_81 x_76)) (?v_127 (= x_72 x_77))) (let ((?v_134 (not ?v_127)) (?v_137 (= x_80 x_75)) (?v_124 (= x_157 x_148)) (?v_125 (= x_23 x_19)) (?v_128 (ite (<= x_73 x_72) x_73 x_72)) (?v_115 (= x_84 x_79)) (?v_117 (= x_78 x_83)) (?v_119 (= x_86 x_81)) (?v_113 (= x_77 x_82))) (let ((?v_120 (not ?v_113)) (?v_123 (= x_85 x_80)) (?v_110 (= x_166 x_157)) (?v_111 (= x_27 x_23)) (?v_114 (ite (<= x_78 x_77) x_78 x_77)) (?v_101 (= x_89 x_84)) (?v_103 (= x_83 x_88)) (?v_105 (= x_91 x_86)) (?v_99 (= x_82 x_87))) (let ((?v_106 (not ?v_99)) (?v_109 (= x_90 x_85)) (?v_96 (= x_175 x_166)) (?v_97 (= x_31 x_27)) (?v_100 (ite (<= x_83 x_82) x_83 x_82)) (?v_87 (= x_94 x_89)) (?v_89 (= x_88 x_93)) (?v_91 (= x_96 x_91)) (?v_85 (= x_87 x_92))) (let ((?v_92 (not ?v_85)) (?v_95 (= x_95 x_90)) (?v_82 (= x_184 x_175)) (?v_83 (= x_35 x_31)) (?v_86 (ite (<= x_88 x_87) x_88 x_87)) (?v_73 (= x_99 x_94)) (?v_75 (= x_93 x_98)) (?v_77 (= x_101 x_96)) (?v_71 (= x_92 x_97))) (let ((?v_78 (not ?v_71)) (?v_81 (= x_100 x_95)) (?v_68 (= x_193 x_184)) (?v_69 (= x_39 x_35)) (?v_72 (ite (<= x_93 x_92) x_93 x_92)) (?v_59 (= x_104 x_99)) (?v_61 (= x_98 x_103)) (?v_63 (= x_106 x_101)) (?v_57 (= x_97 x_102))) (let ((?v_64 (not ?v_57)) (?v_67 (= x_105 x_100)) (?v_54 (= x_202 x_193)) (?v_55 (= x_43 x_39)) (?v_58 (ite (<= x_98 x_97) x_98 x_97)) (?v_45 (= x_109 x_104)) (?v_47 (= x_103 x_108)) (?v_49 (= x_111 x_106)) (?v_43 (= x_102 x_107))) (let ((?v_50 (not ?v_43)) (?v_53 (= x_110 x_105)) (?v_40 (= x_211 x_202)) (?v_41 (= x_47 x_43)) (?v_44 (ite (<= x_103 x_102) x_103 x_102)) (?v_31 (= x_114 x_109)) (?v_33 (= x_108 x_113)) (?v_35 (= x_116 x_111)) (?v_29 (= x_107 x_112))) (let ((?v_36 (not ?v_29)) (?v_39 (= x_115 x_110)) (?v_26 (= x_220 x_211)) (?v_27 (= x_221 x_47)) (?v_30 (ite (<= x_108 x_107) x_108 x_107)) (?v_28 (= x_224 x_45)) (?v_38 (= x_47 x_221)) (?v_42 (= x_45 x_41)) (?v_52 (= x_43 x_47)) (?v_56 (= x_41 x_37)) (?v_66 (= x_39 x_43)) (?v_70 (= x_37 x_33)) (?v_80 (= x_35 x_39)) (?v_84 (= x_33 x_29)) (?v_94 (= x_31 x_35)) (?v_98 (= x_29 x_25)) (?v_108 (= x_27 x_31)) (?v_112 (= x_25 x_21)) (?v_122 (= x_23 x_27)) (?v_126 (= x_21 x_17)) (?v_136 (= x_19 x_23)) (?v_140 (= x_17 x_13)) (?v_150 (= x_15 x_19)) (?v_154 (= x_13 x_9)) (?v_164 (= x_11 x_15)) (?v_168 (= x_9 x_5)) (?v_178 (= x_7 x_11)) (?v_182 (= x_5 x_1)) (?v_192 (= x_3 x_7)) (?v_32 (<= x_111 ?v_2)) (?v_46 (<= x_106 ?v_4)) (?v_60 (<= x_101 ?v_6)) (?v_74 (<= x_96 ?v_8)) (?v_88 (<= x_91 ?v_10)) (?v_102 (<= x_86 ?v_12)) (?v_116 (<= x_81 ?v_14)) (?v_130 (<= x_76 ?v_16)) (?v_144 (<= x_71 ?v_18)) (?v_158 (<= x_66 ?v_20)) (?v_172 (<= x_61 ?v_22)) (?v_186 (<= x_55 ?v_24)) (?v_1 (+ ?v_0 x_52)) (?v_34 (+ ?v_2 x_56)) (?v_3 (+ ?v_2 x_52)) (?v_48 (+ ?v_4 x_56)) (?v_5 (+ ?v_4 x_52)) (?v_62 (+ ?v_6 x_56)) (?v_7 (+ ?v_6 x_52)) (?v_76 (+ ?v_8 x_56)) (?v_9 (+ ?v_8 x_52)) (?v_90 (+ ?v_10 x_56)) (?v_11 (+ ?v_10 x_52)) (?v_104 (+ ?v_12 x_56)) (?v_13 (+ ?v_12 x_52)) (?v_118 (+ ?v_14 x_56)) (?v_15 (+ ?v_14 x_52)) (?v_132 (+ ?v_16 x_56)) (?v_17 (+ ?v_16 x_52)) (?v_146 (+ ?v_18 x_56)) (?v_19 (+ ?v_18 x_52)) (?v_160 (+ ?v_20 x_56)) (?v_21 (+ ?v_20 x_52)) (?v_174 (+ ?v_22 x_56)) (?v_23 (+ ?v_22 x_52)) (?v_188 (+ ?v_24 x_56)) (?v_25 (+ ?v_24 x_52))) (let ((?v_37 (+ ?v_30 x_52)) (?v_51 (+ ?v_44 x_52)) (?v_65 (+ ?v_58 x_52)) (?v_79 (+ ?v_72 x_52)) (?v_93 (+ ?v_86 x_52)) (?v_107 (+ ?v_100 x_52)) (?v_121 (+ ?v_114 x_52)) (?v_135 (+ ?v_128 x_52)) (?v_149 (+ ?v_142 x_52)) (?v_163 (+ ?v_156 x_52)) (?v_177 (+ ?v_170 x_52)) (?v_191 (+ ?v_184 x_52))) (and (and (and (and (and (and (and (and (and (and (and (and (and (and (and (and (and (and (and (and (and (and (and (and (and (and (and (and (and (and (and (and (and (and (and (and (and (and (and (and (and (and (and (and (and (and (and (and (and (and (and (and (and (and (and (and (and (and (and (and (and (and (and (and (and (and (and (and (and (and (and (and (and (and (and (and (and (and (and (and (and (and (and (and (and (and (and (and (and (and (and (and (and (and (and (and (and (and (and (and (and (and (and (and (and (and (and (and (and (and (and (and (and (and (and (and (and (and (and (and (and (and (and (and (and (and (and (and (and (and (and (and (and (and (and (and (and (and (and (and (and (and (and (and (and (and (and (and (and (and (and (and (and (and (and (and (and (and (and (and (and (and (and (and (and (and (and (and (and (and (and (and (and (> x_50 0) (> x_51 0)) (>= x_52 0)) (< x_52 x_50)) (< x_52 x_51)) (>= x_56 0)) (< x_56 x_50)) (< x_56 x_51)) (or (= x_44 x_45) (= x_46 x_47))) (or (= x_40 x_41) (= x_42 x_43))) (or (= x_36 x_37) (= x_38 x_39))) (or (= x_32 x_33) (= x_34 x_35))) (or (= x_28 x_29) (= x_30 x_31))) (or (= x_24 x_25) (= x_26 x_27))) (or (= x_20 x_21) (= x_22 x_23))) (or (= x_16 x_17) (= x_18 x_19))) (or (= x_12 x_13) (= x_14 x_15))) (or (= x_8 x_9) (= x_10 x_11))) (or (= x_4 x_5) (= x_6 x_7))) (or (= x_0 x_1) (= x_2 x_3))) (or (<= x_114 ?v_0) (<= (- (+ x_114 x_51) x_52) x_113))) (or (<= x_115 ?v_0) (<= (- (+ x_115 x_51) x_52) x_113))) (or (<= x_116 ?v_0) (<= (- (+ x_116 x_50) x_56) x_112))) (<= x_116 (+ ?v_0 x_56))) (<= x_115 ?v_1)) (<= x_114 ?v_1)) (<= ?v_0 x_112)) (<= ?v_0 x_113)) (or (<= x_109 ?v_2) (<= (- (+ x_109 x_51) x_52) x_108))) (or (<= x_110 ?v_2) (<= (- (+ x_110 x_51) x_52) x_108))) (or ?v_32 (<= (- (+ x_111 x_50) x_56) x_107))) (<= x_111 ?v_34)) (<= x_110 ?v_3)) (<= x_109 ?v_3)) (<= ?v_2 x_107)) (<= ?v_2 x_108)) (or (<= x_104 ?v_4) (<= (- (+ x_104 x_51) x_52) x_103))) (or (<= x_105 ?v_4) (<= (- (+ x_105 x_51) x_52) x_103))) (or ?v_46 (<= (- (+ x_106 x_50) x_56) x_102))) (<= x_106 ?v_48)) (<= x_105 ?v_5)) (<= x_104 ?v_5)) (<= ?v_4 x_102)) (<= ?v_4 x_103)) (or (<= x_99 ?v_6) (<= (- (+ x_99 x_51) x_52) x_98))) (or (<= x_100 ?v_6) (<= (- (+ x_100 x_51) x_52) x_98))) (or ?v_60 (<= (- (+ x_101 x_50) x_56) x_97))) (<= x_101 ?v_62)) (<= x_100 ?v_7)) (<= x_99 ?v_7)) (<= ?v_6 x_97)) (<= ?v_6 x_98)) (or (<= x_94 ?v_8) (<= (- (+ x_94 x_51) x_52) x_93))) (or (<= x_95 ?v_8) (<= (- (+ x_95 x_51) x_52) x_93))) (or ?v_74 (<= (- (+ x_96 x_50) x_56) x_92))) (<= x_96 ?v_76)) (<= x_95 ?v_9)) (<= x_94 ?v_9)) (<= ?v_8 x_92)) (<= ?v_8 x_93)) (or (<= x_89 ?v_10) (<= (- (+ x_89 x_51) x_52) x_88))) (or (<= x_90 ?v_10) (<= (- (+ x_90 x_51) x_52) x_88))) (or ?v_88 (<= (- (+ x_91 x_50) x_56) x_87))) (<= x_91 ?v_90)) (<= x_90 ?v_11)) (<= x_89 ?v_11)) (<= ?v_10 x_87)) (<= ?v_10 x_88)) (or (<= x_84 ?v_12) (<= (- (+ x_84 x_51) x_52) x_83))) (or (<= x_85 ?v_12) (<= (- (+ x_85 x_51) x_52) x_83))) (or ?v_102 (<= (- (+ x_86 x_50) x_56) x_82))) (<= x_86 ?v_104)) (<= x_85 ?v_13)) (<= x_84 ?v_13)) (<= ?v_12 x_82)) (<= ?v_12 x_83)) (or (<= x_79 ?v_14) (<= (- (+ x_79 x_51) x_52) x_78))) (or (<= x_80 ?v_14) (<= (- (+ x_80 x_51) x_52) x_78))) (or ?v_116 (<= (- (+ x_81 x_50) x_56) x_77))) (<= x_81 ?v_118)) (<= x_80 ?v_15)) (<= x_79 ?v_15)) (<= ?v_14 x_77)) (<= ?v_14 x_78)) (or (<= x_74 ?v_16) (<= (- (+ x_74 x_51) x_52) x_73))) (or (<= x_75 ?v_16) (<= (- (+ x_75 x_51) x_52) x_73))) (or ?v_130 (<= (- (+ x_76 x_50) x_56) x_72))) (<= x_76 ?v_132)) (<= x_75 ?v_17)) (<= x_74 ?v_17)) (<= ?v_16 x_72)) (<= ?v_16 x_73)) (or (<= x_69 ?v_18) (<= (- (+ x_69 x_51) x_52) x_68))) (or (<= x_70 ?v_18) (<= (- (+ x_70 x_51) x_52) x_68))) (or ?v_144 (<= (- (+ x_71 x_50) x_56) x_67))) (<= x_71 ?v_146)) (<= x_70 ?v_19)) (<= x_69 ?v_19)) (<= ?v_18 x_67)) (<= ?v_18 x_68)) (or (<= x_64 ?v_20) (<= (- (+ x_64 x_51) x_52) x_63))) (or (<= x_65 ?v_20) (<= (- (+ x_65 x_51) x_52) x_63))) (or ?v_158 (<= (- (+ x_66 x_50) x_56) x_62))) (<= x_66 ?v_160)) (<= x_65 ?v_21)) (<= x_64 ?v_21)) (<= ?v_20 x_62)) (<= ?v_20 x_63)) (or (<= x_59 ?v_22) (<= (- (+ x_59 x_51) x_52) x_58))) (or (<= x_60 ?v_22) (<= (- (+ x_60 x_51) x_52) x_58))) (or ?v_172 (<= (- (+ x_61 x_50) x_56) x_57))) (<= x_61 ?v_174)) (<= x_60 ?v_23)) (<= x_59 ?v_23)) (<= ?v_22 x_57)) (<= ?v_22 x_58)) (or (<= x_53 ?v_24) (<= (- (+ x_53 x_51) x_52) x_49))) (or (<= x_54 ?v_24) (<= (- (+ x_54 x_51) x_52) x_49))) (or ?v_186 (<= (- (+ x_55 x_50) x_56) x_48))) (<= x_55 ?v_188)) (<= x_54 ?v_25)) (<= x_53 ?v_25)) (<= ?v_24 x_48)) (<= ?v_24 x_49)) (or (and (and (and (and (and (and (and (and (and (= x_222 0) (= x_223 x_216)) (= ?v_2 x_107)) (<= (+ ?v_2 x_50) x_112)) (or ?v_28 (= x_224 x_44))) (= x_225 x_213)) (= x_226 x_214)) (= x_113 x_108)) ?v_26) ?v_27) (and (and (and (and (and (and (and (and (and (= x_222 1) (= x_226 x_213)) (= ?v_2 x_108)) (<= (+ ?v_2 x_51) x_113)) (or (and (and (= x_227 0) ?v_26) ?v_27) (and (and (= x_227 1) (= x_211 x_214)) (= x_220 (not x_211))))) (= x_228 x_216)) (= x_223 x_44)) (= x_229 x_46)) (= x_112 x_107)) ?v_28))) (or (or (and (and (and (= x_230 0) ?v_36) (or (not (<= x_109 ?v_30)) (= x_228 x_211))) ?v_31) (and (and (and (= x_230 1) ?v_29) (xor x_211 x_220)) (= x_114 ?v_37))) (and (and (and (= x_230 2) ?v_29) (= x_211 x_220)) ?v_31))) (or (or (and (and (and (= x_231 0) (not ?v_33)) (or (not ?v_32) (= x_225 x_45))) ?v_35) (and (and (and (= x_231 1) ?v_33) (xor x_45 x_224)) (= x_116 ?v_34))) (and (and (and (= x_231 2) ?v_33) (= x_45 x_224)) ?v_35))) (or (or (and (and (and (= x_232 0) ?v_36) (or (not (<= x_110 ?v_30)) (= x_229 x_47))) ?v_39) (and (and (and (= x_232 1) ?v_29) (not ?v_38)) (= x_115 ?v_37))) (and (and (and (= x_232 2) ?v_29) ?v_38) ?v_39))) (or (and (and (and (and (and (and (and (and (and (= x_212 0) (= x_44 x_207)) (= ?v_4 x_102)) (<= (+ ?v_4 x_50) x_107)) (or ?v_42 (= x_45 x_40))) (= x_213 x_204)) (= x_214 x_205)) (= x_108 x_103)) ?v_40) ?v_41) (and (and (and (and (and (and (and (and (and (= x_212 1) (= x_214 x_204)) (= ?v_4 x_103)) (<= (+ ?v_4 x_51) x_108)) (or (and (and (= x_215 0) ?v_40) ?v_41) (and (and (= x_215 1) (= x_202 x_205)) (= x_211 (not x_202))))) (= x_216 x_207)) (= x_44 x_40)) (= x_46 x_42)) (= x_107 x_102)) ?v_42))) (or (or (and (and (and (= x_217 0) ?v_50) (or (not (<= x_104 ?v_44)) (= x_216 x_202))) ?v_45) (and (and (and (= x_217 1) ?v_43) (xor x_202 x_211)) (= x_109 ?v_51))) (and (and (and (= x_217 2) ?v_43) (= x_202 x_211)) ?v_45))) (or (or (and (and (and (= x_218 0) (not ?v_47)) (or (not ?v_46) (= x_213 x_41))) ?v_49) (and (and (and (= x_218 1) ?v_47) (xor x_41 x_45)) (= x_111 ?v_48))) (and (and (and (= x_218 2) ?v_47) (= x_41 x_45)) ?v_49))) (or (or (and (and (and (= x_219 0) ?v_50) (or (not (<= x_105 ?v_44)) (= x_46 x_43))) ?v_53) (and (and (and (= x_219 1) ?v_43) (not ?v_52)) (= x_110 ?v_51))) (and (and (and (= x_219 2) ?v_43) ?v_52) ?v_53))) (or (and (and (and (and (and (and (and (and (and (= x_203 0) (= x_40 x_198)) (= ?v_6 x_97)) (<= (+ ?v_6 x_50) x_102)) (or ?v_56 (= x_41 x_36))) (= x_204 x_195)) (= x_205 x_196)) (= x_103 x_98)) ?v_54) ?v_55) (and (and (and (and (and (and (and (and (and (= x_203 1) (= x_205 x_195)) (= ?v_6 x_98)) (<= (+ ?v_6 x_51) x_103)) (or (and (and (= x_206 0) ?v_54) ?v_55) (and (and (= x_206 1) (= x_193 x_196)) (= x_202 (not x_193))))) (= x_207 x_198)) (= x_40 x_36)) (= x_42 x_38)) (= x_102 x_97)) ?v_56))) (or (or (and (and (and (= x_208 0) ?v_64) (or (not (<= x_99 ?v_58)) (= x_207 x_193))) ?v_59) (and (and (and (= x_208 1) ?v_57) (xor x_193 x_202)) (= x_104 ?v_65))) (and (and (and (= x_208 2) ?v_57) (= x_193 x_202)) ?v_59))) (or (or (and (and (and (= x_209 0) (not ?v_61)) (or (not ?v_60) (= x_204 x_37))) ?v_63) (and (and (and (= x_209 1) ?v_61) (xor x_37 x_41)) (= x_106 ?v_62))) (and (and (and (= x_209 2) ?v_61) (= x_37 x_41)) ?v_63))) (or (or (and (and (and (= x_210 0) ?v_64) (or (not (<= x_100 ?v_58)) (= x_42 x_39))) ?v_67) (and (and (and (= x_210 1) ?v_57) (not ?v_66)) (= x_105 ?v_65))) (and (and (and (= x_210 2) ?v_57) ?v_66) ?v_67))) (or (and (and (and (and (and (and (and (and (and (= x_194 0) (= x_36 x_189)) (= ?v_8 x_92)) (<= (+ ?v_8 x_50) x_97)) (or ?v_70 (= x_37 x_32))) (= x_195 x_186)) (= x_196 x_187)) (= x_98 x_93)) ?v_68) ?v_69) (and (and (and (and (and (and (and (and (and (= x_194 1) (= x_196 x_186)) (= ?v_8 x_93)) (<= (+ ?v_8 x_51) x_98)) (or (and (and (= x_197 0) ?v_68) ?v_69) (and (and (= x_197 1) (= x_184 x_187)) (= x_193 (not x_184))))) (= x_198 x_189)) (= x_36 x_32)) (= x_38 x_34)) (= x_97 x_92)) ?v_70))) (or (or (and (and (and (= x_199 0) ?v_78) (or (not (<= x_94 ?v_72)) (= x_198 x_184))) ?v_73) (and (and (and (= x_199 1) ?v_71) (xor x_184 x_193)) (= x_99 ?v_79))) (and (and (and (= x_199 2) ?v_71) (= x_184 x_193)) ?v_73))) (or (or (and (and (and (= x_200 0) (not ?v_75)) (or (not ?v_74) (= x_195 x_33))) ?v_77) (and (and (and (= x_200 1) ?v_75) (xor x_33 x_37)) (= x_101 ?v_76))) (and (and (and (= x_200 2) ?v_75) (= x_33 x_37)) ?v_77))) (or (or (and (and (and (= x_201 0) ?v_78) (or (not (<= x_95 ?v_72)) (= x_38 x_35))) ?v_81) (and (and (and (= x_201 1) ?v_71) (not ?v_80)) (= x_100 ?v_79))) (and (and (and (= x_201 2) ?v_71) ?v_80) ?v_81))) (or (and (and (and (and (and (and (and (and (and (= x_185 0) (= x_32 x_180)) (= ?v_10 x_87)) (<= (+ ?v_10 x_50) x_92)) (or ?v_84 (= x_33 x_28))) (= x_186 x_177)) (= x_187 x_178)) (= x_93 x_88)) ?v_82) ?v_83) (and (and (and (and (and (and (and (and (and (= x_185 1) (= x_187 x_177)) (= ?v_10 x_88)) (<= (+ ?v_10 x_51) x_93)) (or (and (and (= x_188 0) ?v_82) ?v_83) (and (and (= x_188 1) (= x_175 x_178)) (= x_184 (not x_175))))) (= x_189 x_180)) (= x_32 x_28)) (= x_34 x_30)) (= x_92 x_87)) ?v_84))) (or (or (and (and (and (= x_190 0) ?v_92) (or (not (<= x_89 ?v_86)) (= x_189 x_175))) ?v_87) (and (and (and (= x_190 1) ?v_85) (xor x_175 x_184)) (= x_94 ?v_93))) (and (and (and (= x_190 2) ?v_85) (= x_175 x_184)) ?v_87))) (or (or (and (and (and (= x_191 0) (not ?v_89)) (or (not ?v_88) (= x_186 x_29))) ?v_91) (and (and (and (= x_191 1) ?v_89) (xor x_29 x_33)) (= x_96 ?v_90))) (and (and (and (= x_191 2) ?v_89) (= x_29 x_33)) ?v_91))) (or (or (and (and (and (= x_192 0) ?v_92) (or (not (<= x_90 ?v_86)) (= x_34 x_31))) ?v_95) (and (and (and (= x_192 1) ?v_85) (not ?v_94)) (= x_95 ?v_93))) (and (and (and (= x_192 2) ?v_85) ?v_94) ?v_95))) (or (and (and (and (and (and (and (and (and (and (= x_176 0) (= x_28 x_171)) (= ?v_12 x_82)) (<= (+ ?v_12 x_50) x_87)) (or ?v_98 (= x_29 x_24))) (= x_177 x_168)) (= x_178 x_169)) (= x_88 x_83)) ?v_96) ?v_97) (and (and (and (and (and (and (and (and (and (= x_176 1) (= x_178 x_168)) (= ?v_12 x_83)) (<= (+ ?v_12 x_51) x_88)) (or (and (and (= x_179 0) ?v_96) ?v_97) (and (and (= x_179 1) (= x_166 x_169)) (= x_175 (not x_166))))) (= x_180 x_171)) (= x_28 x_24)) (= x_30 x_26)) (= x_87 x_82)) ?v_98))) (or (or (and (and (and (= x_181 0) ?v_106) (or (not (<= x_84 ?v_100)) (= x_180 x_166))) ?v_101) (and (and (and (= x_181 1) ?v_99) (xor x_166 x_175)) (= x_89 ?v_107))) (and (and (and (= x_181 2) ?v_99) (= x_166 x_175)) ?v_101))) (or (or (and (and (and (= x_182 0) (not ?v_103)) (or (not ?v_102) (= x_177 x_25))) ?v_105) (and (and (and (= x_182 1) ?v_103) (xor x_25 x_29)) (= x_91 ?v_104))) (and (and (and (= x_182 2) ?v_103) (= x_25 x_29)) ?v_105))) (or (or (and (and (and (= x_183 0) ?v_106) (or (not (<= x_85 ?v_100)) (= x_30 x_27))) ?v_109) (and (and (and (= x_183 1) ?v_99) (not ?v_108)) (= x_90 ?v_107))) (and (and (and (= x_183 2) ?v_99) ?v_108) ?v_109))) (or (and (and (and (and (and (and (and (and (and (= x_167 0) (= x_24 x_162)) (= ?v_14 x_77)) (<= (+ ?v_14 x_50) x_82)) (or ?v_112 (= x_25 x_20))) (= x_168 x_159)) (= x_169 x_160)) (= x_83 x_78)) ?v_110) ?v_111) (and (and (and (and (and (and (and (and (and (= x_167 1) (= x_169 x_159)) (= ?v_14 x_78)) (<= (+ ?v_14 x_51) x_83)) (or (and (and (= x_170 0) ?v_110) ?v_111) (and (and (= x_170 1) (= x_157 x_160)) (= x_166 (not x_157))))) (= x_171 x_162)) (= x_24 x_20)) (= x_26 x_22)) (= x_82 x_77)) ?v_112))) (or (or (and (and (and (= x_172 0) ?v_120) (or (not (<= x_79 ?v_114)) (= x_171 x_157))) ?v_115) (and (and (and (= x_172 1) ?v_113) (xor x_157 x_166)) (= x_84 ?v_121))) (and (and (and (= x_172 2) ?v_113) (= x_157 x_166)) ?v_115))) (or (or (and (and (and (= x_173 0) (not ?v_117)) (or (not ?v_116) (= x_168 x_21))) ?v_119) (and (and (and (= x_173 1) ?v_117) (xor x_21 x_25)) (= x_86 ?v_118))) (and (and (and (= x_173 2) ?v_117) (= x_21 x_25)) ?v_119))) (or (or (and (and (and (= x_174 0) ?v_120) (or (not (<= x_80 ?v_114)) (= x_26 x_23))) ?v_123) (and (and (and (= x_174 1) ?v_113) (not ?v_122)) (= x_85 ?v_121))) (and (and (and (= x_174 2) ?v_113) ?v_122) ?v_123))) (or (and (and (and (and (and (and (and (and (and (= x_158 0) (= x_20 x_153)) (= ?v_16 x_72)) (<= (+ ?v_16 x_50) x_77)) (or ?v_126 (= x_21 x_16))) (= x_159 x_150)) (= x_160 x_151)) (= x_78 x_73)) ?v_124) ?v_125) (and (and (and (and (and (and (and (and (and (= x_158 1) (= x_160 x_150)) (= ?v_16 x_73)) (<= (+ ?v_16 x_51) x_78)) (or (and (and (= x_161 0) ?v_124) ?v_125) (and (and (= x_161 1) (= x_148 x_151)) (= x_157 (not x_148))))) (= x_162 x_153)) (= x_20 x_16)) (= x_22 x_18)) (= x_77 x_72)) ?v_126))) (or (or (and (and (and (= x_163 0) ?v_134) (or (not (<= x_74 ?v_128)) (= x_162 x_148))) ?v_129) (and (and (and (= x_163 1) ?v_127) (xor x_148 x_157)) (= x_79 ?v_135))) (and (and (and (= x_163 2) ?v_127) (= x_148 x_157)) ?v_129))) (or (or (and (and (and (= x_164 0) (not ?v_131)) (or (not ?v_130) (= x_159 x_17))) ?v_133) (and (and (and (= x_164 1) ?v_131) (xor x_17 x_21)) (= x_81 ?v_132))) (and (and (and (= x_164 2) ?v_131) (= x_17 x_21)) ?v_133))) (or (or (and (and (and (= x_165 0) ?v_134) (or (not (<= x_75 ?v_128)) (= x_22 x_19))) ?v_137) (and (and (and (= x_165 1) ?v_127) (not ?v_136)) (= x_80 ?v_135))) (and (and (and (= x_165 2) ?v_127) ?v_136) ?v_137))) (or (and (and (and (and (and (and (and (and (and (= x_149 0) (= x_16 x_144)) (= ?v_18 x_67)) (<= (+ ?v_18 x_50) x_72)) (or ?v_140 (= x_17 x_12))) (= x_150 x_141)) (= x_151 x_142)) (= x_73 x_68)) ?v_138) ?v_139) (and (and (and (and (and (and (and (and (and (= x_149 1) (= x_151 x_141)) (= ?v_18 x_68)) (<= (+ ?v_18 x_51) x_73)) (or (and (and (= x_152 0) ?v_138) ?v_139) (and (and (= x_152 1) (= x_139 x_142)) (= x_148 (not x_139))))) (= x_153 x_144)) (= x_16 x_12)) (= x_18 x_14)) (= x_72 x_67)) ?v_140))) (or (or (and (and (and (= x_154 0) ?v_148) (or (not (<= x_69 ?v_142)) (= x_153 x_139))) ?v_143) (and (and (and (= x_154 1) ?v_141) (xor x_139 x_148)) (= x_74 ?v_149))) (and (and (and (= x_154 2) ?v_141) (= x_139 x_148)) ?v_143))) (or (or (and (and (and (= x_155 0) (not ?v_145)) (or (not ?v_144) (= x_150 x_13))) ?v_147) (and (and (and (= x_155 1) ?v_145) (xor x_13 x_17)) (= x_76 ?v_146))) (and (and (and (= x_155 2) ?v_145) (= x_13 x_17)) ?v_147))) (or (or (and (and (and (= x_156 0) ?v_148) (or (not (<= x_70 ?v_142)) (= x_18 x_15))) ?v_151) (and (and (and (= x_156 1) ?v_141) (not ?v_150)) (= x_75 ?v_149))) (and (and (and (= x_156 2) ?v_141) ?v_150) ?v_151))) (or (and (and (and (and (and (and (and (and (and (= x_140 0) (= x_12 x_135)) (= ?v_20 x_62)) (<= (+ ?v_20 x_50) x_67)) (or ?v_154 (= x_13 x_8))) (= x_141 x_132)) (= x_142 x_133)) (= x_68 x_63)) ?v_152) ?v_153) (and (and (and (and (and (and (and (and (and (= x_140 1) (= x_142 x_132)) (= ?v_20 x_63)) (<= (+ ?v_20 x_51) x_68)) (or (and (and (= x_143 0) ?v_152) ?v_153) (and (and (= x_143 1) (= x_130 x_133)) (= x_139 (not x_130))))) (= x_144 x_135)) (= x_12 x_8)) (= x_14 x_10)) (= x_67 x_62)) ?v_154))) (or (or (and (and (and (= x_145 0) ?v_162) (or (not (<= x_64 ?v_156)) (= x_144 x_130))) ?v_157) (and (and (and (= x_145 1) ?v_155) (xor x_130 x_139)) (= x_69 ?v_163))) (and (and (and (= x_145 2) ?v_155) (= x_130 x_139)) ?v_157))) (or (or (and (and (and (= x_146 0) (not ?v_159)) (or (not ?v_158) (= x_141 x_9))) ?v_161) (and (and (and (= x_146 1) ?v_159) (xor x_9 x_13)) (= x_71 ?v_160))) (and (and (and (= x_146 2) ?v_159) (= x_9 x_13)) ?v_161))) (or (or (and (and (and (= x_147 0) ?v_162) (or (not (<= x_65 ?v_156)) (= x_14 x_11))) ?v_165) (and (and (and (= x_147 1) ?v_155) (not ?v_164)) (= x_70 ?v_163))) (and (and (and (= x_147 2) ?v_155) ?v_164) ?v_165))) (or (and (and (and (and (and (and (and (and (and (= x_131 0) (= x_8 x_126)) (= ?v_22 x_57)) (<= (+ ?v_22 x_50) x_62)) (or ?v_168 (= x_9 x_4))) (= x_132 x_121)) (= x_133 x_123)) (= x_63 x_58)) ?v_166) ?v_167) (and (and (and (and (and (and (and (and (and (= x_131 1) (= x_133 x_121)) (= ?v_22 x_58)) (<= (+ ?v_22 x_51) x_63)) (or (and (and (= x_134 0) ?v_166) ?v_167) (and (and (= x_134 1) (= x_117 x_123)) (= x_130 (not x_117))))) (= x_135 x_126)) (= x_8 x_4)) (= x_10 x_6)) (= x_62 x_57)) ?v_168))) (or (or (and (and (and (= x_136 0) ?v_176) (or (not (<= x_59 ?v_170)) (= x_135 x_117))) ?v_171) (and (and (and (= x_136 1) ?v_169) (xor x_117 x_130)) (= x_64 ?v_177))) (and (and (and (= x_136 2) ?v_169) (= x_117 x_130)) ?v_171))) (or (or (and (and (and (= x_137 0) (not ?v_173)) (or (not ?v_172) (= x_132 x_5))) ?v_175) (and (and (and (= x_137 1) ?v_173) (xor x_5 x_9)) (= x_66 ?v_174))) (and (and (and (= x_137 2) ?v_173) (= x_5 x_9)) ?v_175))) (or (or (and (and (and (= x_138 0) ?v_176) (or (not (<= x_60 ?v_170)) (= x_10 x_7))) ?v_179) (and (and (and (= x_138 1) ?v_169) (not ?v_178)) (= x_65 ?v_177))) (and (and (and (= x_138 2) ?v_169) ?v_178) ?v_179))) (or (and (and (and (and (and (and (and (and (and (= x_119 0) (= x_4 x_120)) (= ?v_24 x_48)) (<= (+ ?v_24 x_50) x_57)) (or ?v_182 (= x_5 x_0))) (= x_121 x_122)) (= x_123 x_124)) (= x_58 x_49)) ?v_180) ?v_181) (and (and (and (and (and (and (and (and (and (= x_119 1) (= x_123 x_122)) (= ?v_24 x_49)) (<= (+ ?v_24 x_51) x_58)) (or (and (and (= x_125 0) ?v_180) ?v_181) (and (and (= x_125 1) (= x_118 x_124)) (= x_117 (not x_118))))) (= x_126 x_120)) (= x_4 x_0)) (= x_6 x_2)) (= x_57 x_48)) ?v_182))) (or (or (and (and (and (= x_127 0) ?v_190) (or (not (<= x_53 ?v_184)) (= x_126 x_118))) ?v_185) (and (and (and (= x_127 1) ?v_183) (xor x_118 x_117)) (= x_59 ?v_191))) (and (and (and (= x_127 2) ?v_183) (= x_118 x_117)) ?v_185))) (or (or (and (and (and (= x_128 0) (not ?v_187)) (or (not ?v_186) (= x_121 x_1))) ?v_189) (and (and (and (= x_128 1) ?v_187) (xor x_1 x_5)) (= x_61 ?v_188))) (and (and (and (= x_128 2) ?v_187) (= x_1 x_5)) ?v_189))) (or (or (and (and (and (= x_129 0) ?v_190) (or (not (<= x_54 ?v_184)) (= x_6 x_3))) ?v_193) (and (and (and (= x_129 1) ?v_183) (not ?v_192)) (= x_60 ?v_191))) (and (and (and (= x_129 2) ?v_183) ?v_192) ?v_193))) (xor x_223 x_224)) (not (= x_229 x_221))))))))))))))))))
(check-sat)
(exit)
